Cars = 1..100;
Options = 1..5;
Classes = 1..23;
sequenceMinCapacity = [0, 0, 0, 0, 0];
sequenceMaxCapacity = [1, 2, 1, 2, 1];
sequenceSize = [2, 3, 3, 5, 5];
numOrdered = [2, 2, 5, 4, 4, 1, 3, 4, 19, 7, 10, 1, 5, 2, 6, 4, 8, 1, 4, 2, 4, 1, 1];
classHasOption = [|false, false, false,  true,  true
                  |false, false,  true, false,  true
                  |false,  true,  true,  true, false
                  |false, false, false,  true, false
                  |false,  true, false,  true, false
                  | true,  true, false, false,  true
                  | true,  true,  true, false,  true
                  |false, false,  true, false, false
                  |false,  true, false, false, false
                  | true,  true, false,  true, false
                  | true, false, false, false, false
                  |false, false,  true,  true, false
                  | true,  true,  true,  true, false
                  | true, false,  true,  true, false
                  | true,  true, false, false, false
                  | true,  true,  true, false, false
                  | true, false, false,  true, false
                  | true, false, false, false,  true
                  |false,  true,  true, false, false
                  |false, false, false, false,  true
                  |false,  true, false, false,  true
                  | true,  true, false,  true,  true
                  |false,  true,  true, false,  true|];
optionOrdering = [1, 3, 5, 4, 2];
